Welcome to the CBC MILP Solver 
Version: 2.10.3 
Build Date: Dec 15 2019 

command line - /home/cdmonsalvea/AI_OR_Workflow/.venv/lib/python3.10/site-packages/pulp/solverdir/cbc/linux/64/cbc /tmp/a723fa3c6de940b383c4e143e5a9b3a7-pulp.mps -sec 3600 -timeMode elapsed -branch -printingOptions all -solution /tmp/a723fa3c6de940b383c4e143e5a9b3a7-pulp.sol (default strategy 1)
At line 2 NAME          MODEL
At line 3 ROWS
At line 19 COLUMNS
At line 188 RHS
At line 203 BOUNDS
At line 211 ENDATA
Problem MODEL has 14 rows, 56 columns and 105 elements
Coin0008I MODEL read with 0 errors
seconds was changed from 1e+100 to 3600
Option for timeMode changed from cpu to elapsed
Continuous objective value is 743667 - 0.00 seconds
Cgl0004I processed model has 14 rows, 56 columns (7 integer (7 of which binary)) and 105 elements
Cbc0038I Initial state - 7 integers unsatisfied sum - 0.239029
Cbc0038I Pass   1: suminf.    0.23903 (1) obj. 1.21407e+08 iterations 6
Cbc0038I Solution found of 1.23775e+08
Cbc0038I Relaxing continuous gives 1.23775e+08
Cbc0038I Before mini branch and bound, 0 integers at bound fixed and 36 continuous
Cbc0038I Full problem 14 rows 56 columns, reduced to 13 rows 18 columns
Cbc0038I Mini branch and bound improved solution from 1.23775e+08 to 1.68092e+07 (0.00 seconds)
Cbc0038I Freeing continuous variables gives a solution of 1.43523e+07
Cbc0038I Round again with cutoff of 1.29914e+07
Cbc0038I Pass   2: suminf.    0.23903 (3) obj. 1.29914e+07 iterations 4
Cbc0038I Pass   3: suminf.    0.14789 (2) obj. 1.29914e+07 iterations 5
Cbc0038I Pass   4: suminf.    0.17570 (3) obj. 1.29914e+07 iterations 8
Cbc0038I Pass   5: suminf.    0.00479 (1) obj. 1.29914e+07 iterations 3
Cbc0038I Pass   6: suminf.    0.01604 (3) obj. 1.29914e+07 iterations 7
Cbc0038I Pass   7: suminf.    0.17570 (3) obj. 1.29914e+07 iterations 6
Cbc0038I Pass   8: suminf.    0.00227 (1) obj. 1.29914e+07 iterations 3
Cbc0038I Pass   9: suminf.    0.17570 (3) obj. 1.29914e+07 iterations 3
Cbc0038I Pass  10: suminf.    0.23043 (4) obj. 1.29914e+07 iterations 2
Cbc0038I Pass  11: suminf.    0.17570 (3) obj. 1.29914e+07 iterations 3
Cbc0038I Pass  12: suminf.    0.00920 (2) obj. 1.29914e+07 iterations 2
Cbc0038I Pass  13: suminf.    0.17570 (3) obj. 1.29914e+07 iterations 3
Cbc0038I Pass  14: suminf.    0.00920 (2) obj. 1.29914e+07 iterations 2
Cbc0038I Pass  15: suminf.    0.17570 (3) obj. 1.29914e+07 iterations 3
Cbc0038I Pass  16: suminf.    0.00920 (2) obj. 1.29914e+07 iterations 2
Cbc0038I Pass  17: suminf.    0.00920 (2) obj. 1.29914e+07 iterations 0
Cbc0038I Pass  18: suminf.    0.00227 (1) obj. 1.29914e+07 iterations 6
Cbc0038I Pass  19: suminf.    0.17570 (3) obj. 1.29914e+07 iterations 3
Cbc0038I Pass  20: suminf.    0.00227 (1) obj. 1.29914e+07 iterations 3
Cbc0038I Pass  21: suminf.    0.19981 (4) obj. 1.29914e+07 iterations 7
Cbc0038I Pass  22: suminf.    0.17570 (3) obj. 1.29914e+07 iterations 5
Cbc0038I Pass  23: suminf.    0.00920 (2) obj. 1.29914e+07 iterations 2
Cbc0038I Pass  24: suminf.    0.17570 (3) obj. 1.29914e+07 iterations 3
Cbc0038I Pass  25: suminf.    0.00000 (0) obj. 1.09905e+07 iterations 7
Cbc0038I Solution found of 1.09905e+07
Cbc0038I Relaxing continuous gives 1.09905e+07
Cbc0038I Before mini branch and bound, 0 integers at bound fixed and 30 continuous
Cbc0038I Full problem 14 rows 56 columns, reduced to 14 rows 26 columns
Cbc0038I Mini branch and bound improved solution from 1.09905e+07 to 1.06884e+07 (0.01 seconds)
Cbc0038I Round again with cutoff of 8.69942e+06
Cbc0038I Pass  26: suminf.    0.23903 (6) obj. 8.69942e+06 iterations 3
Cbc0038I Pass  27: suminf.    0.26363 (5) obj. 8.69942e+06 iterations 5
Cbc0038I Pass  28: suminf.    0.26363 (5) obj. 8.69942e+06 iterations 0
Cbc0038I Pass  29: suminf.    0.25561 (5) obj. 8.69942e+06 iterations 2
Cbc0038I Pass  30: suminf.    0.25561 (5) obj. 8.69942e+06 iterations 0
Cbc0038I Pass  31: suminf.    0.64068 (5) obj. 8.69942e+06 iterations 1
Cbc0038I Pass  32: suminf.    0.64068 (5) obj. 8.69942e+06 iterations 0
Cbc0038I Pass  33: suminf.    0.64068 (5) obj. 8.69942e+06 iterations 0
Cbc0038I Pass  34: suminf.    0.19992 (2) obj. 8.69942e+06 iterations 5
Cbc0038I Pass  35: suminf.    0.26363 (5) obj. 8.69942e+06 iterations 5
Cbc0038I Pass  36: suminf.    0.26363 (5) obj. 8.69942e+06 iterations 0
Cbc0038I Pass  37: suminf.    0.25561 (5) obj. 8.69942e+06 iterations 2
Cbc0038I Pass  38: suminf.    0.25561 (5) obj. 8.69942e+06 iterations 0
Cbc0038I Pass  39: suminf.    0.64068 (5) obj. 8.69942e+06 iterations 1
Cbc0038I Pass  40: suminf.    0.64068 (5) obj. 8.69942e+06 iterations 0
Cbc0038I Pass  41: suminf.    0.64068 (5) obj. 8.69942e+06 iterations 0
Cbc0038I Pass  42: suminf.    0.64068 (5) obj. 8.69942e+06 iterations 0
Cbc0038I Pass  43: suminf.    0.20009 (2) obj. 8.69942e+06 iterations 5
Cbc0038I Pass  44: suminf.    0.27778 (5) obj. 8.69942e+06 iterations 5
Cbc0038I Pass  45: suminf.    0.27778 (5) obj. 8.69942e+06 iterations 0
Cbc0038I Pass  46: suminf.    0.25561 (5) obj. 8.69942e+06 iterations 2
Cbc0038I Pass  47: suminf.    0.25561 (5) obj. 8.69942e+06 iterations 0
Cbc0038I Pass  48: suminf.    0.64068 (5) obj. 8.69942e+06 iterations 1
Cbc0038I Pass  49: suminf.    0.64068 (5) obj. 8.69942e+06 iterations 0
Cbc0038I Pass  50: suminf.    0.19992 (2) obj. 8.69942e+06 iterations 5
Cbc0038I Pass  51: suminf.    0.26363 (5) obj. 8.69942e+06 iterations 5
Cbc0038I Pass  52: suminf.    0.26363 (5) obj. 8.69942e+06 iterations 0
Cbc0038I Pass  53: suminf.    0.25561 (5) obj. 8.69942e+06 iterations 2
Cbc0038I Pass  54: suminf.    0.25561 (5) obj. 8.69942e+06 iterations 0
Cbc0038I Pass  55: suminf.    0.64068 (5) obj. 8.69942e+06 iterations 1
Cbc0038I No solution found this major pass
Cbc0038I Before mini branch and bound, 0 integers at bound fixed and 33 continuous
Cbc0038I Full problem 14 rows 56 columns, reduced to 10 rows 19 columns
Cbc0038I Mini branch and bound did not improve solution (0.01 seconds)
Cbc0038I After 0.01 seconds - Feasibility pump exiting with objective of 1.06884e+07 - took 0.01 seconds
Cbc0012I Integer solution of 10688354 found by feasibility pump after 0 iterations and 0 nodes (0.01 seconds)
Cbc0031I 13 added rows had average density of 12.692308
Cbc0013I At root node, 27 cuts changed objective from 743667.07 to 10688354 in 5 passes
Cbc0014I Cut generator 0 (Probing) - 18 row cuts average 2.9 elements, 1 column cuts (1 active)  in 0.000 seconds - new frequency is 1
Cbc0014I Cut generator 1 (Gomory) - 16 row cuts average 14.0 elements, 0 column cuts (0 active)  in 0.000 seconds - new frequency is 1
Cbc0014I Cut generator 2 (Knapsack) - 0 row cuts average 0.0 elements, 0 column cuts (0 active)  in 0.000 seconds - new frequency is -100
Cbc0014I Cut generator 3 (Clique) - 0 row cuts average 0.0 elements, 0 column cuts (0 active)  in 0.000 seconds - new frequency is -100
Cbc0014I Cut generator 4 (MixedIntegerRounding2) - 13 row cuts average 11.8 elements, 0 column cuts (0 active)  in 0.000 seconds - new frequency is 1
Cbc0014I Cut generator 5 (FlowCover) - 0 row cuts average 0.0 elements, 0 column cuts (0 active)  in 0.000 seconds - new frequency is -100
Cbc0014I Cut generator 6 (TwoMirCuts) - 17 row cuts average 14.4 elements, 0 column cuts (0 active)  in 0.000 seconds - new frequency is 1
Cbc0001I Search completed - best objective 10688354.25249314, took 35 iterations and 0 nodes (0.01 seconds)
Cbc0035I Maximum depth 0, 0 variables fixed on reduced cost
Cuts at root node changed objective from 743667 to 1.06884e+07
Probing was tried 5 times and created 19 cuts of which 0 were active after adding rounds of cuts (0.000 seconds)
Gomory was tried 5 times and created 16 cuts of which 0 were active after adding rounds of cuts (0.000 seconds)
Knapsack was tried 5 times and created 0 cuts of which 0 were active after adding rounds of cuts (0.000 seconds)
Clique was tried 5 times and created 0 cuts of which 0 were active after adding rounds of cuts (0.000 seconds)
MixedIntegerRounding2 was tried 5 times and created 13 cuts of which 0 were active after adding rounds of cuts (0.000 seconds)
FlowCover was tried 5 times and created 0 cuts of which 0 were active after adding rounds of cuts (0.000 seconds)
TwoMirCuts was tried 5 times and created 17 cuts of which 0 were active after adding rounds of cuts (0.000 seconds)
ZeroHalf was tried 1 times and created 0 cuts of which 0 were active after adding rounds of cuts (0.000 seconds)

Result - Optimal solution found

Objective value:                10688354.25249314
Enumerated nodes:               0
Total iterations:               35
Time (CPU seconds):             0.01
Time (Wallclock seconds):       0.01

Option for printingOptions changed from normal to all
Total time (CPU seconds):       0.01   (Wallclock seconds):       0.01

